p cnf 100 160
43 -6 -5 0
97 24 90 0
58 -16 23 0
29 -54 -23 0
-17 96 -60 0
-94 85 -38 0
46 -26 -17 0
49 -88 63 0
-39 -70 9 0
73 92 64 0
-83 35 84 0
94 -45 -26 0
-43 -20 80 0
48 -60 97 0
52 -30 -46 0
65 83 -84 0
48 93 -14 0
-90 99 36 0
-19 -31 -96 0
63 -50 37 0
53 100 -80 0
17 -77 -7 0
50 46 20 0
-51 50 -80 0
11 100 -41 0
94 -35 -55 0
-51 -58 97 0
-65 75 -98 0
28 -74 -7 0
-5 -99 -77 0
-31 -91 -24 0
-24 26 -46 0
-77 59 -94 0
-75 -90 56 0
-93 -20 -62 0
49 -47 -4 0
-46 21 26 0
35 87 21 0
-62 -83 -87 0
-69 -6 -3 0
-13 70 65 0
-54 53 98 0
55 -52 -13 0
-17 -89 -52 0
-86 -73 -10 0
49 1 -60 0
89 -19 48 0
6 -51 68 0
39 -5 6 0
71 73 -89 0
-59 -28 53 0
50 78 -85 0
68 -30 -31 0
58 41 -85 0
-88 -13 -43 0
20 30 -79 0
88 -69 59 0
-11 98 -34 0
37 -68 35 0
-94 46 11 0
4 -84 -12 0
70 -96 73 0
20 -50 -56 0
9 -42 33 0
-15 24 80 0
43 -67 -75 0
95 -87 -91 0
-25 33 -28 0
33 65 -56 0
25 24 -47 0
-42 -7 85 0
83 -42 -25 0
34 24 -25 0
-48 43 -83 0
72 26 -95 0
55 -70 14 0
-51 52 -90 0
77 45 -88 0
-41 -55 -33 0
-78 -100 14 0
-91 -19 -20 0
25 -34 -6 0
54 -25 99 0
76 -23 -52 0
-95 -28 -99 0
10 89 88 0
49 85 33 0
-30 -42 -40 0
-59 -13 7 0
31 -51 3 0
49 10 11 0
24 58 -83 0
-67 -93 -94 0
-30 6 71 0
50 -4 13 0
-57 -45 -82 0
-80 11 91 0
-53 96 -31 0
27 32 25 0
-90 -28 37 0
x 2 -5 8 9 -12 -14 -18 19 22 24 -25 26 -27 31 32 35 -37 -39 41 42 44 -48 -49 -51 -52 -53 55 -58 59 -62 63 -64 -68 71 -72 -75 -76 -77 -78 -81 -85 -87 -88 -89 -90 91 92 -95 98 -99 100 0
x 2 -3 -4 7 10 11 -12 15 19 -20 21 -22 23 -24 28 29 -31 -41 43 46 47 48 -50 -54 -55 56 57 59 -61 -62 63 -65 -66 67 -69 -70 -72 -74 -77 78 80 81 82 -83 85 88 89 -91 95 -98 0
x 1 -4 5 6 10 -15 -16 -17 18 -19 20 -22 -23 -25 27 31 -32 -34 37 39 40 43 -45 -48 -49 -50 -53 56 -58 -59 -64 -65 68 -69 -70 74 -75 -78 79 -80 -81 -83 -85 86 87 -90 -92 94 -98 99 0
x -2 3 4 5 6 -7 9 -10 -11 -13 -15 -16 17 21 -23 24 -27 29 33 -35 -37 39 40 -42 -47 -48 51 -55 57 -63 -68 -70 -73 -75 76 77 83 -85 -87 88 89 -90 -91 -92 -93 95 96 -97 99 -100 0
x 2 4 5 -7 -10 11 13 14 15 19 20 21 22 -23 -26 29 31 -32 -33 -36 -37 38 -40 -43 -44 -47 49 -50 -53 -56 57 58 -63 64 -66 -67 69 -71 74 76 77 79 -80 -81 -82 83 85 -88 -93 94 -98 0
x 1 4 6 7 -8 -9 10 -11 -12 -13 15 -16 17 -18 -19 20 22 23 25 -28 -30 -31 -33 34 35 -40 42 43 44 -47 -50 52 53 -56 -57 -58 59 60 61 62 64 66 -68 69 -70 -71 76 78 -79 -86 87 93 94 96 -99 100 0
x -2 -5 10 -11 13 -17 19 20 -23 24 -26 -27 33 34 38 39 40 42 47 -48 49 -50 -54 -55 56 66 -67 -69 -70 71 72 73 -74 -80 -82 84 -85 87 -88 89 -93 94 -98 100 0
x -1 -2 3 -5 -6 8 10 12 14 -15 -16 17 -18 -20 -24 -26 29 33 36 -37 -38 42 -43 -44 -45 49 50 -51 -54 58 -61 63 -66 -67 -71 -73 74 -75 -76 77 83 -84 87 88 -90 92 96 98 -99 0
x -9 -10 11 12 -14 -15 16 -25 26 -27 -29 -30 33 -34 -35 36 37 -44 46 -51 -54 55 -56 57 58 -61 -63 -65 -67 -68 70 72 -74 -75 76 77 -79 -81 82 -83 -85 -86 92 -95 -98 100 0
x -3 -4 -5 -8 10 -11 -13 14 -15 16 -18 -21 24 25 -27 -29 31 33 34 35 -36 -37 -38 39 42 44 47 -49 50 -51 -52 53 54 -56 -57 58 -60 -62 63 -66 68 -69 -71 -72 73 75 77 -78 -81 84 85 86 87 89 90 91 92 93 -94 -96 0
x 2 5 6 -8 -11 -12 -15 -17 18 19 21 -23 -26 -32 34 -38 47 -49 -51 52 -54 56 -58 60 -62 64 -66 71 72 -74 -75 -76 77 -79 81 82 -83 -85 -86 87 90 91 -92 96 -97 99 -100 0
x -1 -5 8 9 -10 -11 12 13 -14 -16 17 18 -19 -20 22 23 -25 -27 28 -33 34 36 -37 -38 -41 -43 -44 -51 -52 -53 56 57 58 -59 -60 -63 -64 65 -66 -67 -68 -69 -72 75 76 -77 -79 -80 84 85 -86 89 90 92 -95 -96 -100 0
x -3 -4 -5 7 9 12 15 -16 17 20 21 24 -26 27 -29 -36 38 39 -45 51 -53 -54 56 59 -63 68 70 -71 76 77 81 -82 -84 -86 88 -96 -97 -98 0
x -2 5 6 10 -11 14 -18 19 -20 -21 -22 24 25 -29 30 33 34 -38 40 -42 44 45 -46 -48 -49 -52 55 -56 58 59 -60 -61 -64 -65 -66 -68 72 -78 79 -80 -82 -83 -85 -86 87 88 89 -90 91 -92 -93 94 96 97 98 0
x -2 4 -6 -7 8 10 11 13 -14 -15 -16 -18 19 -20 -21 -22 -24 -25 27 32 33 -38 -39 -40 -41 -45 46 -50 51 53 -54 -55 -56 57 58 59 -62 65 -66 69 71 -72 -73 -76 77 -78 81 -82 83 -90 91 93 96 -97 -98 100 0
x -1 -2 -3 -4 -5 7 11 12 14 16 17 -21 22 23 24 25 27 -29 -32 -34 35 36 -39 40 -41 42 -43 -46 -49 -50 51 -52 -53 -54 55 -56 60 -63 -64 -66 70 72 73 -77 -79 80 81 -85 -86 -87 88 91 94 96 -98 0
x -1 -2 3 4 5 -7 10 -12 13 14 -16 18 -20 21 -24 -26 -32 -33 -34 36 37 38 39 41 43 47 -49 -50 52 55 56 57 58 60 -67 68 70 71 -72 -73 74 -75 -78 81 -82 84 -85 91 94 -95 97 98 -99 0
x -8 11 -13 14 -16 17 21 22 -23 -24 26 27 30 -31 32 33 34 36 -37 -38 41 -42 43 -47 -49 56 58 -60 -61 64 66 -68 -70 71 73 -74 -75 -77 79 -80 -81 85 -86 -88 90 91 -93 -95 99 -100 0
x 3 -5 6 -7 -8 -9 -11 12 -14 -15 -16 17 18 -21 -23 -26 -27 29 31 33 35 -36 -37 38 -39 42 -44 -45 -46 -47 48 49 -51 -53 -56 -57 -59 60 -61 63 -66 68 69 72 75 80 -82 -83 -85 86 87 -88 91 -92 -95 -96 -97 -99 100 0
x 2 4 -6 7 -9 10 11 -12 13 14 15 -16 18 21 23 -30 31 32 33 35 -38 -39 40 42 -43 44 -45 46 47 -48 -50 -52 56 -58 59 -60 62 -63 64 -65 -71 -73 -75 -76 -81 83 84 -87 88 -89 90 -93 -95 -96 -100 0
x -1 3 -4 -5 -6 -7 -9 11 12 -13 16 -17 19 23 24 -26 -27 -28 -30 -32 -35 37 -39 42 43 47 -49 51 -52 55 -56 -57 59 61 -62 63 64 -65 -66 -67 -68 -69 70 73 -74 -75 -77 -79 -81 -82 83 -85 87 -90 93 -95 -98 -100 0
x -1 3 -7 -8 9 -13 17 18 -19 -23 -25 27 28 -35 -38 -39 40 44 -51 53 55 56 58 -59 60 62 65 69 -70 -71 -72 75 78 80 81 -84 -85 -87 -90 91 -96 -97 -98 -99 0
x -3 -5 -6 -8 -10 -12 -15 16 17 19 -20 24 -26 27 -28 29 -30 32 -33 -34 -36 38 39 41 42 43 45 -46 47 48 -49 50 52 55 -56 -58 61 65 -68 71 72 -77 78 79 -82 -89 90 -91 93 -94 -96 97 98 99 -100 0
x 5 -6 10 11 13 14 15 16 17 -19 21 -22 25 -27 28 31 36 -38 39 42 -46 -47 49 50 51 52 54 65 -66 -71 72 -78 80 -82 83 86 -89 90 92 -95 97 98 0
x 1 -7 9 10 11 -14 16 -20 21 22 -23 28 29 -31 32 33 -35 36 -37 38 40 -41 42 -43 48 -51 -52 53 54 -55 -56 57 60 -63 65 73 75 -76 77 -78 79 80 84 -87 -90 91 -92 -93 94 95 -96 -97 -99 -100 0
x 1 2 -5 7 8 -11 -14 -17 18 20 -22 -27 28 -30 -31 -32 -36 -38 41 -42 -44 -46 49 51 -53 55 -61 64 -65 -66 70 -71 -74 -75 -77 -78 -79 80 -82 -83 84 86 -88 89 -92 -93 98 -99 100 0
x 2 4 -8 9 -11 12 13 15 -18 -22 23 26 28 -33 -34 -35 38 39 42 -45 46 -47 -48 -53 54 56 -57 -58 -60 -63 -65 67 -68 69 -73 76 -78 81 82 -83 -84 -85 -88 89 91 92 -95 -98 -99 -100 0
x 1 6 8 -10 -11 15 16 18 19 20 22 26 -27 31 -34 -36 -37 -38 40 41 42 -43 -46 -47 -48 50 51 52 -58 60 61 62 63 -64 -66 -72 -75 79 -81 83 -85 -88 89 92 93 94 -95 96 98 -99 100 0
x -1 2 3 8 9 -10 -11 -13 14 -17 -19 22 25 26 27 -30 -35 36 -39 44 -45 -52 -53 54 -56 -57 -61 -62 -66 67 -68 69 70 71 -72 -73 76 78 -79 80 -82 84 86 89 -90 91 93 94 99 0
x -5 -6 8 11 -20 -21 -23 -26 -27 -28 -31 -32 34 -37 38 -42 43 50 53 -57 -59 61 62 64 65 -66 -68 -69 -77 -80 81 -84 -85 88 -89 90 92 -96 97 -98 -99 0
x 1 -4 7 -9 10 -11 13 -14 -16 18 20 25 -26 -28 -32 -33 42 43 45 46 -47 48 -52 54 55 -58 -59 60 -61 -62 -63 -66 67 69 70 -71 -73 74 -76 -77 78 -80 81 -83 -84 89 -90 92 93 -95 98 -99 0
x -2 -3 -4 7 -14 -17 -19 20 21 22 -23 28 -34 -36 -38 -39 40 -42 -43 44 -45 46 47 48 51 52 55 -56 -58 63 -66 68 -71 -72 -73 -74 75 77 81 -82 -83 -89 90 92 93 94 97 -98 -99 100 0
x 1 3 8 -10 -11 14 -15 17 -18 -19 -20 -21 22 23 28 -29 31 -32 -33 -36 37 -38 -40 -42 -43 47 -49 -50 -52 -54 57 -58 -59 -61 -62 -64 65 73 80 -82 -83 84 -86 87 88 -89 90 91 -94 99 -100 0
x 3 9 -11 -13 14 -17 18 -21 -29 30 31 -33 37 -39 -41 45 -47 -53 54 55 57 -58 -60 -61 64 66 67 68 69 -70 71 73 -77 78 80 81 -82 -85 86 87 89 91 92 -93 -95 -96 -97 98 -100 0
x 1 -2 3 4 -6 7 8 13 16 20 -21 22 -24 -27 -28 29 -31 33 -35 36 -37 39 -41 -42 -44 -46 -47 -48 -49 -54 55 -56 62 63 65 -67 70 71 -72 -75 -81 -82 -83 -84 -85 87 88 -92 -93 94 -96 97 -100 0
x -1 3 -5 -6 -7 -8 -9 -11 -13 -15 17 -18 19 20 -21 22 25 28 -30 -31 -33 -35 -38 40 41 -44 45 -48 -50 51 -53 54 55 -56 57 -61 63 -64 65 72 73 -80 84 -85 86 87 -88 -90 -92 94 97 -99 100 0
x -6 9 -13 14 -15 18 -19 20 -21 24 25 26 27 33 -36 38 40 41 -43 -44 47 -51 52 -53 54 -59 -61 62 65 66 70 76 77 -78 -79 80 -83 -84 86 -87 -88 89 -93 -94 -98 -100 0
x -6 9 -10 12 -14 -15 19 -20 -22 -23 26 -28 32 34 37 -38 -39 41 -46 49 -52 54 56 -60 -61 64 65 -66 67 -69 73 -74 -77 78 -81 -84 85 -86 -87 88 89 -90 91 93 96 97 100 0
x -1 2 -3 4 -5 8 -10 -13 15 17 20 -21 -23 -25 27 -29 32 33 -34 35 40 -43 -44 45 48 49 50 -52 53 54 55 -56 -57 58 -62 -68 70 72 -81 86 88 -89 -90 91 -92 -93 96 97 -99 0
x 2 -4 -5 -7 8 9 -11 12 -13 -16 -20 22 24 -25 -27 -33 -34 -36 -37 -38 -39 -40 42 -44 45 -47 -48 52 -54 55 56 -57 -58 61 63 -64 -66 71 75 -77 78 80 -85 86 90 91 93 94 98 -99 -100 0
x -1 -2 3 -5 -7 -8 -11 13 -14 -16 -18 19 20 23 26 -28 30 31 -35 36 -39 -41 42 44 54 -56 -57 60 64 66 70 -72 76 83 84 -89 91 93 -94 -95 -96 97 98 99 -100 0
x -1 3 -8 13 -14 17 -23 -25 27 28 29 30 -31 42 44 -45 -47 48 -49 50 -56 -57 -59 60 -62 64 -68 -72 -74 -75 -77 79 82 85 -88 89 91 92 93 -94 95 96 97 -99 -100 0
x 1 -3 -4 6 10 -14 16 17 -21 -24 -26 28 -30 32 -33 34 -35 36 -37 -39 40 -41 -42 44 -45 46 47 48 -49 51 -53 -55 58 -59 -61 62 -63 67 -70 71 73 -74 -76 77 78 -82 83 -85 -88 91 93 94 95 97 -98 0
x -3 6 -10 13 15 17 -18 20 -21 -22 -25 26 27 28 -30 31 -35 -36 -37 38 -39 -40 43 -44 -47 48 -50 53 -54 -55 -56 -59 60 -61 62 63 -65 66 67 -69 -71 73 74 75 76 -77 80 81 -82 -83 84 85 87 -88 89 -90 91 -92 -93 -97 0
x 3 -8 13 14 -15 -17 18 21 -22 -23 -34 38 39 41 -42 43 -44 45 -46 47 -48 51 -52 53 -57 -58 -62 -63 -64 -67 69 73 77 -85 -89 90 91 -95 0
x -2 5 7 -8 9 10 -11 -12 13 14 -15 16 18 -19 -20 -21 24 29 -32 -35 -39 -42 43 -48 50 -51 -53 55 -57 58 -59 63 -64 -66 -68 72 -73 77 78 -81 -82 84 85 -87 -88 92 93 94 -96 -97 98 0
x -7 -8 -10 11 -12 13 -15 18 20 -22 -23 -24 26 27 -28 -29 31 32 -33 35 36 38 39 41 -42 43 -46 -48 49 50 52 -53 58 61 65 67 69 -70 -72 77 -78 -79 -81 -84 -85 86 87 -88 -89 92 93 95 -97 -99 0
x 1 -3 -5 -6 7 -8 9 -11 -14 -23 -26 -27 -29 33 -36 -37 38 -40 41 -42 -48 51 56 -57 58 59 60 64 67 -68 -70 76 -77 78 80 -81 83 -87 88 -90 -92 93 -95 99 100 0
x -1 -2 -9 10 11 -12 13 15 -17 -19 -23 28 29 -30 32 -36 42 43 -45 50 51 -52 -53 55 -57 -61 62 63 67 70 -71 72 -76 -78 86 -87 -89 -90 92 -94 95 96 98 0
x -1 5 -6 9 11 12 13 -14 -17 -18 -20 21 25 -27 29 32 -33 -36 -39 -40 -41 42 43 -44 48 -50 -52 -53 -55 56 -57 -62 63 69 -72 -73 75 77 78 -82 83 85 -86 -89 -91 95 -96 -97 99 -100 0
x -5 6 -8 9 -12 13 14 -16 -17 20 21 -22 -23 -28 29 -31 -36 -40 41 -44 47 48 -50 52 53 -54 -57 58 61 -63 65 66 -67 68 69 70 71 -72 -73 74 76 -77 -78 -81 -82 83 85 -88 90 -92 -94 96 97 -99 0
x 5 6 8 9 -10 11 12 14 -17 20 21 22 -23 -24 26 27 28 30 -34 38 -39 -41 -42 44 -47 -48 -50 51 52 -53 54 58 -61 -64 65 -66 69 70 72 -73 -76 -77 78 82 87 -89 90 92 93 94 -95 -96 -99 -100 0
x -1 -2 -5 -9 -11 -12 13 14 -16 -17 -18 -20 24 -26 -28 29 32 -33 34 36 38 -39 -41 -42 -44 47 -49 51 53 -56 57 58 -59 -61 -62 63 66 68 -69 -70 72 73 -74 75 -77 81 86 87 -88 -89 91 93 -94 95 96 -100 0
x 1 -6 -7 -8 -9 18 22 24 -27 -28 29 32 -33 -36 -37 38 -39 -40 -41 42 45 -46 47 -51 -53 -56 -57 60 64 -65 -66 67 -68 -69 70 -72 -76 -80 88 -90 -91 92 93 94 -95 -96 -98 99 100 0
x -7 9 10 12 -14 17 -21 -22 -24 25 -26 27 -28 -29 -30 31 32 -36 37 -39 40 -41 -42 -43 -45 49 -50 -51 -53 54 -55 -56 59 62 -68 -69 70 -73 76 -77 78 79 81 83 84 -85 88 89 -92 -95 -96 97 -99 0
x -1 -2 -3 -4 -5 6 -10 -12 16 17 18 19 -23 25 -26 28 -30 -32 34 35 -36 37 -42 -44 45 -47 49 50 57 -60 -61 62 -63 65 -66 -68 -70 71 -74 -77 -79 -80 -84 -85 -86 -89 -90 -92 -95 98 0
x -2 -3 -4 6 -7 9 -10 -11 12 -13 17 -18 -22 -24 29 30 34 36 -37 -40 -42 -44 -45 -47 48 -49 51 -52 -54 -56 -58 59 60 61 62 66 -67 -68 -70 71 -72 -73 -76 77 79 80 -82 -83 87 88 89 -92 -94 -95 97 0
x -1 -2 -3 -7 -10 13 -14 -17 18 19 -22 25 27 29 30 -41 44 -46 47 -48 49 53 54 -57 -59 -61 -62 63 -64 -65 -66 -68 69 -71 73 -74 -75 -80 84 86 87 -88 90 94 98 0
x -1 3 -6 8 10 12 -14 17 19 21 -28 29 -30 31 34 -37 -38 -39 -41 -42 43 44 45 -48 49 -50 -52 53 55 56 -57 -58 -60 61 -63 64 65 -66 -68 70 -71 72 73 -78 -79 80 -81 85 88 89 -90 -93 94 -95 -98 -99 -100 0
x 3 -4 5 -6 -8 -11 12 -13 -15 -17 -19 -20 21 -22 -24 25 26 27 -30 -31 -32 -34 -37 -38 40 43 44 46 50 -51 -54 -56 -57 -63 64 -65 -66 -69 -70 71 -74 76 78 80 84 -89 91 -95 -96 98 -100 0
